NAME : portcgen-23-2
COMMENT : portcgen N=23, seed=2
TYPE : TSP
DIMENSION : 23
EDGE_WEIGHT_TYPE : EUC_2D
NODE_COORD_SECTION
1 308519 86696
2 526766 140468
3 -30314 -52666
4 -216951 -125686
5 -110050 -143569
6 250343 -301663
7 217535 166669
8 -396763 -93405
9 279409 -68444
10 -75208 232955
11 70779 31539
12 200080 338045
13 -183792 165915
14 -25762 -212959
15 26945 -37985
16 26733 -8737
17 -82037 176537
18 80587 -338338
19 468300 -74006
20 -248277 230334
21 -190287 -188134
22 203847 264816
23 84093 18917
